p cnf 64 225
-2 1 0
-2 -1 0
-3 -4 -5 0
3 4 -5 0
-3 4 5 0
3 -4 5 0
6 -2 0
6 -5 0
2 5 -6 0
8 6 0
8 7 0
-6 -7 -8 0
10 4 0
10 1 0
-4 -1 -10 0
12 -10 0
12 -11 0
10 11 -12 0
9 -12 -13 0
-9 12 -13 0
9 12 13 0
-9 -12 13 0
-15 -9 0
-15 -14 0
9 14 15 0
11 15 -16 0
-11 -15 -16 0
11 -15 16 0
-11 15 16 0
-16 9 -17 0
16 -9 -17 0
-16 -9 17 0
16 9 17 0
1 -18 0
-1 -18 0
19 17 0
19 -18 0
-17 18 -19 0
-13 -19 -20 0
13 19 -20 0
-13 19 20 0
13 -19 20 0
21 -18 0
21 9 0
18 -9 -21 0
22 -17 0
22 -12 0
17 12 -22 0
23 7 0
23 -22 0
-7 22 -23 0
24 21 0
24 23 0
-21 -23 -24 0
26 2 0
26 25 0
-2 -25 -26 0
27 1 0
27 16 0
-1 -16 -27 0
-28 -22 0
-28 27 0
22 -27 28 0
29 -26 0
29 28 0
26 -28 -29 0
-30 6 0
-30 -14 0
-6 14 30 0
-4 -32 0
4 -32 0
33 32 0
33 -17 0
-32 17 -33 0
-34 31 0
-34 -33 0
-31 33 34 0
-35 14 0
-35 -18 0
-14 18 35 0
-36 25 0
-36 35 0
-25 -35 36 0
-10 36 -37 0
10 -36 -37 0
-10 -36 37 0
10 36 37 0
-38 -31 0
-38 14 0
31 -14 38 0
-1 38 -39 0
1 -38 -39 0
-1 -38 39 0
1 38 39 0
40 -37 0
40 39 0
37 -39 -40 0
-34 40 -41 0
34 -40 -41 0
-34 -40 41 0
34 40 41 0
42 30 0
42 41 0
-30 -41 -42 0
43 -3 0
43 -32 0
3 32 -43 0
5 17 -44 0
-5 -17 -44 0
5 -17 44 0
-5 17 44 0
-45 -43 0
-45 44 0
43 -44 45 0
-42 -45 -46 0
42 45 -46 0
-42 45 46 0
42 -45 46 0
47 29 0
47 -46 0
-29 46 -47 0
-48 -24 0
-48 -47 0
24 47 48 0
-10 49 0
10 49 0
50 22 0
50 1 0
-22 -1 -50 0
-51 49 0
-51 50 0
-49 -50 51 0
52 31 0
52 -10 0
-31 10 -52 0
21 -52 -53 0
-21 52 -53 0
21 52 53 0
-21 -52 53 0
54 51 0
54 53 0
-51 -53 -54 0
55 48 0
55 54 0
-48 -54 -55 0
22 32 -56 0
-22 -32 -56 0
22 -32 56 0
-22 32 56 0
56 4 -57 0
-56 -4 -57 0
56 -4 57 0
-56 4 57 0
57 -58 -59 0
-57 58 -59 0
57 58 59 0
-57 -58 59 0
-60 16 0
-60 -15 0
-16 15 60 0
-61 59 0
-61 -60 0
-59 60 61 0
62 55 0
62 61 0
-55 -61 -62 0
-63 -20 0
-63 62 0
20 -62 63 0
64 -8 0
64 -63 0
8 63 -64 0
-48 6 -10 9 63 37 0
30 2 0
7 31 -38 -33 42 29 0
-46 45 -25 15 0
34 57 -13 0
-20 -22 -21 -37 53 0
-35 33 60 34 0
-47 -30 61 -19 0
-23 -12 37 -48 27 56 0
-48 9 -38 -50 0
42 18 -16 0
9 43 41 0
46 32 26 0
-23 44 19 0
60 -30 61 64 0
58 13 10 -20 0
27 16 -2 -35 -25 34 0
59 -24 -36 34 0
42 -4 0
-13 -64 36 47 0
24 25 61 33 0
11 13 -26 0
-43 -26 13 -29 0
32 -1 -63 0
-29 -5 30 19 42 0
61 64 0
52 48 45 -18 -44 1 0
29 -19 -25 -52 0
-62 10 -52 -9 -21 0
8 28 0
-5 -23 2 0
49 -60 -20 47 0
-4 -19 -41 -54 -5 -25 0
-3 -36 -8 -46 33 0
56 -42 0
12 -5 0
1 -63 -61 -34 -10 -19 0
-20 18 -27 0
-15 13 0
-6 -12 -32 48 27 -31 0
-62 -2 -40 -17 0
-7 42 0
44 56 0
-25 -27 43 39 57 29 0
28 44 58 0
-1 -48 0
-21 -45 38 24 0
44 15 -52 -58 0
24 -33 0
-62 -22 0
-41 18 16 -24 0
-35 37 -9 0
64 0
